
%FILE DATA:	Soccer Computational Problem for MiniZinc Models	%
%AUTHOR:	Jack Wall	%
%CONTACT:  	116397063@umail.ucc.ie			%
%LAST UPDATE:	03/03/2020, 16:02:56						%
%DESCRIPTION: 	48 games played with 8 games left				%


n=8; %number of teams

%Games to play
games=[|2,8|1,5|7,3|2,7|4,7|4,5|2,3|4,2|];

%Initial points
iPoints=[23,8,15,12,10,23,16,21];

%POSITION CONSTRAINTS
% [|teamID, operator, position|...]
% operators index:
%  1 for =  operator
%  2 for >  operator
%  3 for >= operator
%  4 for <  operator
%  5 for <= operator
positionConstraints=[|1,5,1|6,4,3|8,2,2|7,3,4|];